sifdecoder -A pc64.lnx.gfo -st   GRIDNETA

 Problem name: GRIDNETA

 Double precision version will be formed

 The objective function uses 1 nonlinear group
 
 There are 3844 linear equality constraints
 
 There are 4899 free variables
 There are 241 variables bounded only from below 
 There are 4 variables bounded from below and above 
 There are 2420 fixed variables
 
 
 File successfully decoded
 CUTEST: tools (double precision version) compiled successfully
 CUTEst: ipopt (double precision version) compiled successfully

******************************************************************************
This program contains Ipopt, a library for large-scale nonlinear optimization.
 Ipopt is released as open source code under the Eclipse Public License (EPL).
         For more information visit http://projects.coin-or.org/Ipopt
******************************************************************************

This is Ipopt version trunk, running with linear solver ma57.

Number of nonzeros in equality constraint Jacobian...:    10288
Number of nonzeros in inequality constraint Jacobian.:        0
Number of nonzeros in Lagrangian Hessian.............:     5144

Total number of variables............................:     5144
                     variables with only lower bounds:      241
                variables with lower and upper bounds:        4
                     variables with only upper bounds:        0
Total number of equality constraints.................:     3844
Total number of inequality constraints...............:        0
        inequality constraints with only lower bounds:        0
   inequality constraints with lower and upper bounds:        0
        inequality constraints with only upper bounds:        0

iter    objective    inf_pr   inf_du lg(mu)  ||d||  lg(rg) alpha_du alpha_pr  ls
   0  2.1687959e+01 9.78e+00 9.39e-01  -1.0 0.00e+00    -  0.00e+00 0.00e+00   0
   1  2.1757170e+01 9.75e+00 1.16e+00  -1.0 6.55e+00    -  1.53e-03 2.57e-03f  1
   2  9.3482828e+01 7.48e+00 3.38e+01  -1.0 8.21e+00    -  3.32e-03 2.33e-01h  1
   3  9.5013329e+01 7.44e+00 2.43e+01  -1.0 6.91e+00    -  4.99e-02 4.46e-03h  1
   4  2.6998146e+02 5.42e+00 1.36e+02  -1.0 7.05e+00    -  3.83e-02 2.72e-01h  1
   5  3.2844508e+02 4.39e+00 1.34e+02  -1.0 5.51e+00    -  8.27e-02 1.89e-01h  1
   6  5.2127805e+02 1.51e-06 5.34e+00  -1.0 4.54e+00    -  1.18e-01 1.00e+00h  1
   7  4.9042600e+02 4.85e-08 3.73e+00  -1.0 2.89e+00    -  2.98e-01 1.00e+00f  1
   8  4.8126636e+02 1.52e-08 2.06e+00  -1.0 2.90e+00    -  4.46e-01 1.00e+00f  1
   9  4.7980931e+02 5.26e-09 2.41e-01  -1.0 3.79e+00    -  8.83e-01 1.00e+00f  1
iter    objective    inf_pr   inf_du lg(mu)  ||d||  lg(rg) alpha_du alpha_pr  ls
  10  4.7877756e+02 5.52e-09 2.00e-07  -1.7 7.37e-01    -  1.00e+00 1.00e+00f  1
  11  4.7818967e+02 7.62e-10 2.83e-08  -2.5 2.98e-01    -  1.00e+00 1.00e+00f  1
  12  4.7802386e+02 7.93e-11 1.50e-09  -3.8 1.64e-01    -  1.00e+00 1.00e+00f  1
  13  4.7798906e+02 3.03e-11 1.50e-09  -3.8 5.95e-02    -  1.00e+00 1.00e+00f  1
  14  4.7798197e+02 1.31e-11 5.51e-03  -5.7 2.92e-02    -  1.00e+00 7.76e-01f  1
  15  4.7797982e+02 6.67e-12 2.70e-03  -5.7 1.77e-02    -  1.00e+00 8.93e-01f  1
  16  4.7797959e+02 2.60e-12 4.07e-04  -5.7 7.11e-03    -  1.00e+00 9.60e-01f  1
  17  4.7797957e+02 5.70e-13 1.85e-11  -5.7 2.13e-03    -  1.00e+00 1.00e+00f  1
  18  4.7797955e+02 3.54e-14 9.43e-06  -8.6 8.72e-04    -  1.00e+00 9.86e-01f  1
  19  4.7797955e+02 4.14e-15 3.34e-14  -8.6 1.75e-04    -  1.00e+00 1.00e+00f  1
iter    objective    inf_pr   inf_du lg(mu)  ||d||  lg(rg) alpha_du alpha_pr  ls
  20  4.7797955e+02 8.88e-16 3.89e-14  -8.6 9.07e-06    -  1.00e+00 1.00e+00h  1

Number of Iterations....: 20

                                   (scaled)                 (unscaled)
Objective...............:   4.7797954645308306e+02    4.7797954645308306e+02
Dual infeasibility......:   3.8862337951989818e-14    3.8862337951989818e-14
Constraint violation....:   8.8817841970012523e-16    8.8817841970012523e-16
Complementarity.........:   2.5944156713599703e-09    2.5944156713599703e-09
Overall NLP error.......:   2.5944156713599703e-09    2.5944156713599703e-09


Number of objective function evaluations             = 21
Number of objective gradient evaluations             = 21
Number of equality constraint evaluations            = 21
Number of inequality constraint evaluations          = 0
Number of equality constraint Jacobian evaluations   = 21
Number of inequality constraint Jacobian evaluations = 0
Number of Lagrangian Hessian evaluations             = 20
Total CPU secs in IPOPT (w/o function evaluations)   =      0.209
Total CPU secs in NLP function evaluations           =      0.032

EXIT: Optimal Solution Found.

************************ CUTEst statistics ************************


 Package used            :  IPOPT
 Problem                 :  GRIDNETA  
 # variables             =            7564
 # constraints           =            3844
 # objective functions   =        0.4300000E+02
 # objective gradients   =        0.2200000E+02
 # objective Hessians    =        0.2100000E+02
 # Hessian-vector prdct  =        0.0000000E+00
 # constraints functions =        0.4400000E+02
 # constraints gradients =        0.2300000E+02
 # constraints Hessians  =        0.2100000E+02
 Exit code               =               0
 Final f                 =        4.7797954645308306D+02
 Bounds feasibility      =        4.9950499736439724D-08
 Set up time             =            0.50 seconds
 Solve time              =            0.46 seconds


******************************************************************

